Problem:    mf
Rows:       42
Columns:    37
Non-zeros:  88
Status:     OPTIMAL
Objective:  FLOW = 195 (MAXimum)

   No.   Row name   St   Activity     Lower bound   Upper bound    Marginal
------ ------------ -- ------------- ------------- ------------- -------------
     1 FLOW         B            195                             
     2 INTERNAL[2]  NS             0            -0             =         < eps
     3 INTERNAL[3]  NS             0            -0             =         < eps
     4 INTERNAL[4]  NS             0            -0             =         < eps
     5 INTERNAL[5]  NS             0            -0             =         < eps
     6 SOURCE[1]    NS             0            -0             =            -1 
     7 CAPACITY[1,1]
                    NU             0                          -0         < eps
     8 CAPACITY[1,2]
                    NU            25                          25             1 
     9 CAPACITY[1,3]
                    NU           100                         100             1 
    10 CAPACITY[1,4]
                    NU            70                          70             1 
    11 CAPACITY[1,5]
                    NU             0                          -0             1 
    12 CAPACITY[1,6]
                    NU             0                          -0             1 
    13 CAPACITY[2,1]
                    B              0                          -0 
    14 CAPACITY[2,2]
                    NU             0                          -0         < eps
    15 CAPACITY[2,3]
                    B             25                          30 
    16 CAPACITY[2,4]
                    NU             0                          -0         < eps
    17 CAPACITY[2,5]
                    B              0                          15 
    18 CAPACITY[2,6]
                    NU             0                          -0         < eps
    19 CAPACITY[3,1]
                    B              0                          -0 
    20 CAPACITY[3,2]
                    NU             0                          -0         < eps
    21 CAPACITY[3,3]
                    NU             0                          -0         < eps
    22 CAPACITY[3,4]
                    NU             0                          -0         < eps
    23 CAPACITY[3,5]
                    NU             0                          -0         < eps
    24 CAPACITY[3,6]
                    B            165                         200 
    25 CAPACITY[4,1]
                    B              0                          -0 
    26 CAPACITY[4,2]
                    NU             0                          -0         < eps
    27 CAPACITY[4,3]
                    B             40                          60 
    28 CAPACITY[4,4]
                    NU             0                          -0         < eps
    29 CAPACITY[4,5]
                    NU             0                          -0         < eps
    30 CAPACITY[4,6]
                    NU            30                          30         < eps
    31 CAPACITY[5,1]
                    B              0                          -0 
    32 CAPACITY[5,2]
                    NU             0                          -0         < eps
    33 CAPACITY[5,3]
                    NU             0                          -0         < eps
    34 CAPACITY[5,4]
                    NU             0                          -0         < eps
    35 CAPACITY[5,5]
                    NU             0                          -0         < eps
    36 CAPACITY[5,6]
                    B              0                         150 
    37 CAPACITY[6,1]
                    B              0                          -0 
    38 CAPACITY[6,2]
                    NU             0                          -0         < eps
    39 CAPACITY[6,3]
                    NU             0                          -0         < eps
    40 CAPACITY[6,4]
                    NU             0                          -0         < eps
    41 CAPACITY[6,5]
                    NU             0                          -0         < eps
    42 CAPACITY[6,6]
                    NU             0                          -0         < eps

   No. Column name  St   Activity     Lower bound   Upper bound    Marginal
------ ------------ -- ------------- ------------- ------------- -------------
     1 TRAFFIC      B            195             0               
     2 x[1,2]       B             25             0               
     3 x[2,2]       B              0             0               
     4 x[3,2]       B              0             0               
     5 x[4,2]       B              0             0               
     6 x[5,2]       B              0             0               
     7 x[6,2]       B              0             0               
     8 x[2,1]       NL             0             0                          -1 
     9 x[2,3]       B             25             0               
    10 x[2,4]       B              0             0               
    11 x[2,5]       NL             0             0                       < eps
    12 x[2,6]       B              0             0               
    13 x[1,3]       B            100             0               
    14 x[3,3]       B              0             0               
    15 x[4,3]       B             40             0               
    16 x[5,3]       B              0             0               
    17 x[6,3]       B              0             0               
    18 x[3,1]       NL             0             0                          -1 
    19 x[3,4]       B              0             0               
    20 x[3,5]       B              0             0               
    21 x[3,6]       B            165             0               
    22 x[1,4]       B             70             0               
    23 x[4,4]       B              0             0               
    24 x[5,4]       B              0             0               
    25 x[6,4]       B              0             0               
    26 x[4,1]       NL             0             0                          -1 
    27 x[4,5]       B              0             0               
    28 x[4,6]       B             30             0               
    29 x[1,5]       B              0             0               
    30 x[5,5]       B              0             0               
    31 x[6,5]       B              0             0               
    32 x[5,1]       NL             0             0                          -1 
    33 x[5,6]       B              0             0               
    34 x[1,1]       B              0             0               
    35 x[6,1]       NL             0             0                          -1 
    36 x[1,6]       B              0             0               
    37 x[6,6]       B              0             0               

Karush-Kuhn-Tucker optimality conditions:

KKT.PE: max.abs.err = 0.00e+00 on row 0
        max.rel.err = 0.00e+00 on row 0
        High quality

KKT.PB: max.abs.err = 0.00e+00 on row 0
        max.rel.err = 0.00e+00 on row 0
        High quality

KKT.DE: max.abs.err = 0.00e+00 on column 0
        max.rel.err = 0.00e+00 on column 0
        High quality

KKT.DB: max.abs.err = 0.00e+00 on row 0
        max.rel.err = 0.00e+00 on row 0
        High quality

End of output
